Mg Zn Co Cu Ni O
1.0
  -0.0202289152074446    8.6315716262522137    8.3211407010925971
   8.3843982692180550   -0.0097015648836133    8.3128335836590086
   8.3818737236814052    8.6193624173621473    0.0024448310226896
Mg Zn Co Cu Ni O
13 12 13 13 13 64
direct
   0.0041103713275900    0.9976776404439571    0.4950878606897327 Mg
   0.9970553506623655    0.0008821254676081    0.7484163877387142 Mg
   0.9976633499386193    0.7511892499418488    0.2495639601703430 Mg
   0.2448389797555829    0.0028183665615745    0.0042240709720346 Mg
   0.2507402861290350    0.2496910301646394    0.5009363497445067 Mg
   0.2528745248448933    0.4982110991902561    0.7510814312296027 Mg
   0.5005512094703658    0.9975126329137085    0.5003379617260396 Mg
   0.4985172010177199    0.2484667226797610   -0.0000035299965582 Mg
   0.4993240500712140    0.2494445185566684    0.2518242015877474 Mg
   0.7501090763537808    0.0014164723953574    0.2462652085365949 Mg
   0.7494157256676487    0.2531114907085714    0.9948371601090696 Mg
   0.7510441669508153    0.2514643441741747    0.2479496227436148 Mg
   0.7580370279254963    0.2473535976731415    0.5002040623501413 Mg
   0.9960248433774979    0.7503880085808441    0.0018769571603422 Zn
   0.2503099442747996    0.9987592201547522    0.7500658127880220 Zn
   0.2497812074642541    0.2445265088375299    0.2534429248554985 Zn
   0.2515026350347728    0.5008798045543486    0.0019171154659340 Zn
   0.2499408739646364    0.5018866297976520    0.2488540081586015 Zn
   0.2485776321996318    0.7499746640550894    0.2519099089243649 Zn
   0.5011836824555741    0.0038906321798006    0.7484812711845802 Zn
   0.4995848898713905    0.2489962725480254    0.7534153430034221 Zn
   0.5019372194759669    0.5024384605664634    0.0032277227913974 Zn
   0.7507087356542542    0.2504718647877651    0.7479225466645242 Zn
   0.7467417130057343    0.5033084405138434    0.7485827314348239 Zn
   0.7450742215251464    0.7491833748594395    0.0017851061353532 Zn
   0.9954935560946022    0.0031020059681677   -0.0000807134465656 Co
   0.0002356580359664    0.2515488563463017    0.7472102537117083 Co
   0.9997625487135021    0.4988021366913577    0.9988480466217466 Co
   0.9982632921899608    0.4942733235892032    0.2548959938249014 Co
   0.9994718331212096    0.5008758504727262    0.5008445248302893 Co
   0.0013793607687295    0.7504605885773593    0.4983768933788283 Co
   0.0012353418577903    0.7511671673772368    0.7469458170137491 Co
   0.2526722282636261    0.9949817055774376    0.4993415183946902 Co
   0.2510221969828627    0.2512462090036637    0.7490184727959068 Co
   0.2548647909851763    0.7475411484832080    0.5027871402840779 Co
   0.5040019780500355    0.2513603806309349    0.5000582501198311 Co
   0.5046201553971046    0.4978362338485102    0.4999381438950073 Co
   0.7493149499539298    0.7513060374741215    0.7495658467487032 Co
   0.9981484710620054    0.0021001657672441    0.2460315100379898 Cu
   0.0056103772822128    0.2438228427117870    0.2468949759126005 Cu
   0.0056821978261971    0.2439332451455783    0.5000361010264954 Cu
   0.2517838881567372    0.9967433743668164    0.2524252632305394 Cu
   0.2521321242814740    0.4995666333323260    0.4987779068794712 Cu
   0.2522959585088956    0.7495725310027389    0.7484663411610162 Cu
   0.5005556083586130    0.5012640463252860    0.2503728797169610 Cu
   0.4939662703762608    0.7536878812781130    0.9991974146486733 Cu
   0.4977590402256321    0.7525920398724245    0.7549383888135022 Cu
   0.7468035989111692    0.0006708018473641    0.0012400077629425 Cu
   0.7498540116479187    0.5018726962291888    0.9997600785718344 Cu
   0.7505436349865849    0.4969708077256075    0.2512063843510500 Cu
   0.7522196131569172    0.5018564609934205    0.4977605306640593 Cu
   0.9944046692646423    0.2544114032825912    0.9961049607270621 Ni
   0.0006514572256295    0.5003001292233140    0.7479116077547787 Ni
   0.2472125971009604    0.2501734343465414    0.0006449216108550 Ni
   0.2454076223782918    0.7523949400500531    0.9985639965500067 Ni
   0.4971892965736568    0.0004844462311995    0.0009953914558781 Ni
   0.4997331975503282    0.9985523589489499    0.2527443060999970 Ni
   0.5009590408236428    0.5016492627282498    0.7525140646247686 Ni
   0.4970331214924708    0.7526160139972093    0.2515947665578878 Ni
   0.5038206623275233    0.7467390770994691    0.5037938258603915 Ni
   0.7513780141012182    0.9995583801072501    0.4965620791102319 Ni
   0.7485501658095642    0.0003133195470855    0.7496121076760218 Ni
   0.7476995543349660    0.7513301765973678    0.2503651136112243 Ni
   0.7480677968659697    0.7515388249946201    0.5001151123605312 Ni
   0.8623293180531407    0.1370985830839959    0.1165242064432629 O
   0.8819221376817601    0.1201405014446171    0.3695830354242176 O
   0.8769975845610477    0.1225941976502795    0.6226588523028266 O
   0.8726460539741608    0.1226571415011565    0.8745431926626827 O
   0.8588310474187211    0.3910275610348754    0.1158282938540486 O
   0.9033821059660034    0.3462499642012739    0.3756754953968747 O
   0.8682936981748161    0.3850431828440755    0.6270923386139059 O
   0.8859509822067898    0.3681339688601267    0.8673440313500159 O
   0.8668492771295544    0.6214099554726512    0.1309252388668567 O
   0.8665402533295338    0.6246256455882339    0.3781100429800117 O
   0.8759036033311542    0.6306299198420011    0.6194038224588507 O
   0.8832048761018266    0.6276829658616182    0.8696026956250841 O
   0.8789349150009906    0.8684726895031362    0.1327371304874472 O
   0.8733886041847767    0.8785427884166873    0.3720837208777519 O
   0.8722418073944839    0.8778144160364985    0.6230364197848892 O
   0.8682977779058142    0.8797168142766417    0.8768130942098745 O
   0.1078124651461180    0.1387588756749072    0.1172890876795768 O
   0.1455149114728609    0.1033928283229578    0.3735934940943743 O
   0.1167089433608565    0.1325484672588688    0.6231299002108130 O
   0.1271135482036499    0.1237061267540501    0.8735309020085732 O
   0.1219374806514564    0.3730854411131552    0.1226251834781810 O
   0.1279667862432263    0.3705550882644438    0.3784271370868507 O
   0.1305334365770277    0.3768769395282798    0.6215137136631970 O
   0.1261877356560945    0.3760129770709889    0.8725797570028425 O
   0.1199538944111058    0.6248551149376735    0.1252144661700535 O
   0.1154457766451195    0.6320676279661578    0.3666879520945225 O
   0.1323547275431920    0.6178208471750406    0.6236081742258499 O
   0.1275264212355247    0.6277317416752413    0.8710228630718592 O
   0.1180705377529777    0.8833491388126518    0.1230793284939155 O
   0.1342267815513028    0.8635330112809558    0.3831178620105709 O
   0.1134397985376216    0.8795110632829105    0.6224293890807471 O
   0.1259029761533628    0.8747992379930039    0.8714986289166289 O
   0.3745822940326198    0.1242930158191200    0.1235289768781198 O
   0.3802914291394649    0.1234360330279568    0.3784367915434037 O
   0.3744303635934756    0.1254357913133889    0.6227560656252130 O
   0.3699394906467984    0.1223051801413830    0.8818088093078355 O
   0.3751989520877377    0.3698656996874880    0.1309392919575834 O
   0.3781311082465800    0.3774012180159938    0.3767431551563615 O
   0.3873818961949174    0.3654135061268861    0.6332788768369159 O
   0.3722188763596081    0.3773023745799539    0.8791944900786641 O
   0.3606332579498394    0.6405316339566243    0.1174954514847716 O
   0.3812545310045470    0.6163928399814945    0.3777719592710732 O
   0.3774150728716561    0.6219981483103182    0.6310213820077394 O
   0.3847747417462195    0.6211521921887654    0.8815718005319747 O
   0.3632778091182861    0.8866983097877924    0.1343083898513443 O
   0.3921456811374656    0.8583647090927471    0.3836785430701213 O
   0.3645882151004227    0.8805901434080169    0.6213707638180525 O
   0.3792909570647370    0.8706283780172391    0.8781725681520547 O
   0.6238080084134618    0.1251525092987859    0.1231419482215183 O
   0.6258894328892647    0.1256501427421791    0.3736891673841170 O
   0.6339511612227714    0.1208559355686584    0.6207700928398180 O
   0.6172802421628359    0.1305456345699601    0.8670358955229309 O
   0.6186501767295584    0.3753978473316449    0.1318699228318951 O
   0.6428881683630168    0.3660200922080779    0.3793848918702371 O
   0.6341028989969905    0.3841077939872425    0.6169502043810023 O
   0.6232638208228578    0.3713051076847994    0.8782969268994415 O
   0.5976767761902919    0.6442835096723044    0.1233182715978631 O
   0.6301468275342343    0.6213415954365945    0.3721977225456641 O
   0.6114605718921706    0.6400066668065260    0.6347299418732666 O
   0.6488246426238287    0.6089537073058051    0.8788497358668225 O
   0.6229340130694396    0.8778433705708314    0.1263808149011061 O
   0.6265187849232746    0.8749078275252674    0.3753681189761426 O
   0.6220624125646737    0.8764672787841240    0.6230530550765029 O
   0.6222640559407379    0.8763495565364403    0.8765323599426010 O
