Sr Nb O                                 
   1.00000000000000     
     8.1125835205165586    0.0000000000000000    0.0000000000000000
     0.0000000000000000    8.1125835205165586    0.0000000000000000
     0.0000000000000000    0.0000000000000000    8.1125835205165586
   Sr   Nb   O 
     8     8    24
Direct
  0.9999043024879956  0.0104808656124529  0.9919577507052170
  0.9999588060367081  0.0084961956950902  0.4897855478775175
  0.9999392446150800  0.5083522328146608  0.9897285363561265
  0.9998973383917027  0.5101645890668189  0.4916253912541943
  0.4999729305314350  0.9900812578518466  0.0084441821887222
  0.4998807399166588  0.9921465253729527  0.5103571021651441
  0.4998676700149701  0.4919353194387637  0.0102294427797561
  0.4999846722059207  0.4901765234536406  0.5080622976167368
  0.2498876088788005  0.2503119641783831  0.2499476902187329
  0.2498647274747802  0.2504063453334192  0.7499321135769736
  0.2498986226026705  0.7502920848895459  0.2501236297783890
  0.2499047063865948  0.7503772003454021  0.7501289050617411
  0.7498279378665704  0.2502966722676771  0.2499307602158420
  0.7498695022266683  0.2503629529048841  0.7499227114269038
  0.7499574801762475  0.7502810549876495  0.2501259882080497
  0.7499203158547629  0.7504090571611828  0.7500830141584748
  0.2270098286231611  0.0000531868840589  0.2224890404454270
  0.2268403079623363  0.2777254105012077 -0.0000951116092872
 -0.0001828304850720  0.2698294238898344  0.2753078324866889
  0.2730133052550074  0.0004832113884161  0.7774572703496279
  0.2729375042006086  0.2228666953464120  0.5000133758754762
 -0.0000156757531223  0.2246193122067739  0.7303920780369051
  0.2728506426105685  0.5004203134237195  0.2775753520213875
  0.2733352270404457  0.7228925417347759  0.0001911524712681
  0.0000460188628135  0.7247460168598232  0.2300206609986235
  0.2267851224886340  0.5001787432483372  0.7226194375329581
  0.2265437437260530  0.7775711614506075  0.4999995779172893
 -0.0001650828363039  0.7699835320194314  0.7758726838204349
  0.7729729424376695  0.0002667647862775  0.2228440434794628
  0.7728596932159741  0.2773681810674263  0.0000476023758927
  0.4999689886637533  0.2305044390203814  0.2245707389819078
  0.7266968983030243  0.0002431451773828  0.7770177052849534
  0.7270353541363420  0.2231466459829046  0.4998407896278551
  0.4997771994755158  0.2759546987231106  0.7694267882051743
  0.7268778665042374  0.5001818920288855  0.2771418134279517
  0.7266201830862101  0.7231583821003176 -0.0000404038066016
  0.4998219439057459  0.7756157691233514  0.2701611330181894
  0.7731115983262847  0.5003712712395197  0.7229632084419335
  0.7731972049447867  0.7772801239233902  0.5001712318638988
  0.4999910171645684  0.7306581780273352  0.7242323917208805
 
  0.00000000E+00  0.00000000E+00  0.00000000E+00
  0.00000000E+00  0.00000000E+00  0.00000000E+00
  0.00000000E+00  0.00000000E+00  0.00000000E+00
  0.00000000E+00  0.00000000E+00  0.00000000E+00
  0.00000000E+00  0.00000000E+00  0.00000000E+00
  0.00000000E+00  0.00000000E+00  0.00000000E+00
  0.00000000E+00  0.00000000E+00  0.00000000E+00
  0.00000000E+00  0.00000000E+00  0.00000000E+00
  0.00000000E+00  0.00000000E+00  0.00000000E+00
  0.00000000E+00  0.00000000E+00  0.00000000E+00
  0.00000000E+00  0.00000000E+00  0.00000000E+00
  0.00000000E+00  0.00000000E+00  0.00000000E+00
  0.00000000E+00  0.00000000E+00  0.00000000E+00
  0.00000000E+00  0.00000000E+00  0.00000000E+00
  0.00000000E+00  0.00000000E+00  0.00000000E+00
  0.00000000E+00  0.00000000E+00  0.00000000E+00
  0.00000000E+00  0.00000000E+00  0.00000000E+00
  0.00000000E+00  0.00000000E+00  0.00000000E+00
  0.00000000E+00  0.00000000E+00  0.00000000E+00
  0.00000000E+00  0.00000000E+00  0.00000000E+00
  0.00000000E+00  0.00000000E+00  0.00000000E+00
  0.00000000E+00  0.00000000E+00  0.00000000E+00
  0.00000000E+00  0.00000000E+00  0.00000000E+00
  0.00000000E+00  0.00000000E+00  0.00000000E+00
  0.00000000E+00  0.00000000E+00  0.00000000E+00
  0.00000000E+00  0.00000000E+00  0.00000000E+00
  0.00000000E+00  0.00000000E+00  0.00000000E+00
  0.00000000E+00  0.00000000E+00  0.00000000E+00
  0.00000000E+00  0.00000000E+00  0.00000000E+00
  0.00000000E+00  0.00000000E+00  0.00000000E+00
  0.00000000E+00  0.00000000E+00  0.00000000E+00
  0.00000000E+00  0.00000000E+00  0.00000000E+00
  0.00000000E+00  0.00000000E+00  0.00000000E+00
  0.00000000E+00  0.00000000E+00  0.00000000E+00
  0.00000000E+00  0.00000000E+00  0.00000000E+00
  0.00000000E+00  0.00000000E+00  0.00000000E+00
  0.00000000E+00  0.00000000E+00  0.00000000E+00
  0.00000000E+00  0.00000000E+00  0.00000000E+00
  0.00000000E+00  0.00000000E+00  0.00000000E+00
  0.00000000E+00  0.00000000E+00  0.00000000E+00
