Sr Ti O
1.0
   3.9138118224880807    0.0000770042986523   -0.0002559699756785
   0.0000772182414734    3.9131326203795522   -0.0002421308380096
  -0.0002557459065214   -0.0002421851971300    3.9120858856775245
Sr Ti O
1 1 3
direct
   0.0023967584882164    0.0014628377442813    0.0006636542194307 Sr
   0.5035413209122195    0.5017436275786782    0.5000532436909274 Ti
   0.4999917387678648    0.0012574032990563    0.5015743632647098 O
   0.4996840779429458    0.5018296837660666    0.0016798415710350 O
   0.9999395903272119    0.5006053306314627    0.5017673336793643 O
