Sr Ti O
1.0
   3.9139832150196994    0.0000000000000000    0.0000000000000000
   0.0000000000000000    3.9139832150196994    0.0000000000000000
   0.0000000000000000    0.0000000000000000    3.9139832150196994
Sr Ti O
1 1 3
direct
   0.0017325978490490    0.0033278451344856    0.9981976828673496 Sr
   0.5024947002982287    0.5046148403859618    0.4986081549731196 Ti
   0.4992818174102709    0.0015101020232180    0.4984763468466014 O
   0.5007505152130847    0.5016808982283152    0.9985332085764966 O
   0.0000249285462530    0.5017594327311841    0.4984597021571062 O
