Sr Nb O 
 1.0000000000000000
     8.0000000000000000    0.0000000000000000    0.0000000000000000
     0.0000000000000000    8.0000000000000000    0.0000000000000000
     0.0000000000000000    0.0000000000000000    8.0000000000000000
 Sr  Nb  O  
   8   8  24
Cartesian
  0.0073215592524888 -0.0037300940136023  0.0036747233205403
 -0.0129157252695510 -0.0073923366752545  4.0089047184718707
 -0.0056927604353957  3.9965761288035195 -0.0014714394654789
 -0.0023580413868791  4.0067937340963908  4.0009553159023126
  3.9812206208513135  0.0080197048199434  0.0046913201490226
  3.9981669053369697  0.0065833133323299  4.0020788235204101
  3.9982289347916007  3.9995064860280722 -0.0005245204615950
  3.9855696964294411  4.0064290169299310  4.0199620853314011
  2.0033436060403598  2.0080740947639937  1.9972146529507653
  1.9978377815792359  2.0024026093017659  5.9995000517787638
  1.9888949959011233  6.0028908954212508  2.0055964867833542
  2.0044851507844541  6.0100439548625735  6.0107919826798195
  5.9853612342596945  1.9778394118787066  2.0173928427267804
  5.9938066655895614  1.9916117316370869  5.9883819249757044
  5.9839530077370293  5.9945639603171230  1.9988524251636530
  6.0068414041542253  5.9949387465698720  6.0011463043842230
  2.0207018987392442  0.0033199450223998  1.9872858698818381
  1.9972328896596676  2.0160908834572622  0.0120824534245751
 -0.0087926755740370  2.0096796790818914  2.0041147285597103
  2.0010867470273710 -0.0066132561817231  5.9844083224848541
  2.0043288392755731  1.9971195398102848  3.9986330417746760
 -0.0111634183210652  1.9925640303355263  6.0120240931182414
  1.9953142682811855  4.0127806196220916  2.0147168973244214
  2.0002853377075831  5.9939221119193018  0.0020127915186742
 -0.0004972836682553  5.9885515995931007  2.0002372530554000
  2.0040042306263266  4.0168934570597399  5.9972187929468914
  2.0038952519583781  6.0032098660496693  3.9766111007238711
  0.0004971273984436  6.0026383969049757  5.9994349948963617
  5.9920306617332093  0.0014485970982381  1.9833336969214668
  6.0036345310875525  1.9949964930542863 -0.0030854191782399
  4.0031511444359325  2.0113549156476380  2.0030671755155991
  6.0086351137430016 -0.0056216815400002  5.9978605498276369
  6.0083073594247098  1.9999182691298165  3.9913465597946565
  4.0060416681934869  2.0255559440596995  6.0071694172055681
  5.9889328549366176  4.0015550306098611  2.0074610761980862
  6.0137334941336515  6.0153255864230166 -0.0084729510899660
  3.9959593723594473  5.9998236832807832  2.0018285554930313
  6.0038298737270805  3.9949779155234135  5.9895572303135367
  6.0234443665613142  6.0137212435620988  3.9993858940684870
  4.0030661711525957  6.0071548246274240  5.9894638294635607
