ALGO = All
EDIFF = 1e-06
EDIFFG = -0.02
ENAUG = 1360
ENCUT = 680.0
IBRION = 2
ISIF = 3
ISMEAR = 0
ISPIN = 1
ISYM = 0
KPAR = 4
KSPACING = 0.25
LAECHG = False
LASPH = True
LCHARG = True
LELF = False
LMAXMIX = 4
LMIXTAU = True
LORBIT = 11
LREAL = Auto
LVTOT = False
LWAVE = True
MAGMOM = 4*5.0 4*0.0
METAGGA = R2scan
NCORE = 32
NELM = 500
NSW = 250
POTIM = 0.25
PREC = Accurate
SIGMA = 0.05
TIME = 0.1
