Ni4 O4                                  
   1.00000000000000     
     4.1817533089586778    0.0000003078870964   -0.0000002748156524
     0.0000003003850669    4.1817506428824380    0.0000001464455046
    -0.0000004585005845    0.0000000720670479    4.1818917441801453
   Ni   O 
     4     4
Direct
  0.0000071152659373  0.0000002901146416  0.0000007524573888
  0.0000074441513291  0.4999991759672682  0.4999990735404367
  0.5000088545258592  0.0000005412467203  0.5000001866664192
  0.5000069396463829  0.4999999508960400  0.9999999030124016
  0.4999923842313194  0.9999999671085433  0.0000000617243785
  0.4999924047343924  0.5000000652132002  0.5000000168918604
  0.9999924747821964  0.9999999858469266  0.5000000637998312
  0.9999923826625903  0.5000000236066455  0.9999999419072907
 
  0.00000000E+00  0.00000000E+00  0.00000000E+00
  0.00000000E+00  0.00000000E+00  0.00000000E+00
  0.00000000E+00  0.00000000E+00  0.00000000E+00
  0.00000000E+00  0.00000000E+00  0.00000000E+00
  0.00000000E+00  0.00000000E+00  0.00000000E+00
  0.00000000E+00  0.00000000E+00  0.00000000E+00
  0.00000000E+00  0.00000000E+00  0.00000000E+00
  0.00000000E+00  0.00000000E+00  0.00000000E+00
