Ni4 O4                                  
   1.00000000000000     
     4.1072032731355588   -0.0000124542671374    0.0000072560300351
    -0.0000124558766379    4.1071839520488167   -0.0000024759555100
     0.0000072552339172   -0.0000024757657356    4.1071517339663188
   Ni   O 
     4     4
Direct
  0.9999992761004863  0.9999998126088829  0.9999995700156512
  0.9999994603576204  0.5000001281670938  0.4999993840670533
  0.4999990941287061  0.0000003483324752  0.5000005322497785
  0.4999992273476606  0.5000000046561988  0.0000003935598294
  0.5000008787065467  0.0000004793916127  0.0000001143177006
  0.5000006884929162  0.5000002463950636  0.5000004292082162
  0.0000002756837747  0.9999993404958634  0.4999997179833673
  0.0000010991822889  0.4999996399528097  0.9999998585983964
 
  0.00000000E+00  0.00000000E+00  0.00000000E+00
  0.00000000E+00  0.00000000E+00  0.00000000E+00
  0.00000000E+00  0.00000000E+00  0.00000000E+00
  0.00000000E+00  0.00000000E+00  0.00000000E+00
  0.00000000E+00  0.00000000E+00  0.00000000E+00
  0.00000000E+00  0.00000000E+00  0.00000000E+00
  0.00000000E+00  0.00000000E+00  0.00000000E+00
  0.00000000E+00  0.00000000E+00  0.00000000E+00
