Sr Ti O                                 
   1.00000000000000     
     7.8266534123301472    0.0000000000000000    0.0000000000000000
     0.0000000000000000    7.8266534123301472    0.0000000000000000
     0.0000000000000000    0.0000000000000000    7.8266534123301472
   Sr   Ti   O 
     8     8    24
Direct
  0.9996417708391658  0.9990581760652448  0.9989696533228118
  0.9996574811412112  0.9991664042896181  0.4990204608189405
  0.9996889206495075  0.4991004051954956  0.9989965226309986
  0.9996330625728622  0.4991015314461948  0.4990296335028617
  0.4995834782539033  0.9990843759461137  0.9990509723398996
  0.4996545774039123  0.9991228854132918  0.4990292894911735
  0.4996743088212459  0.4991115650362934  0.9990086281766003
  0.4996524177297538  0.4990723957513983  0.4989685845938633
  0.2494584164241636  0.2485747812918916  0.2482705152908787
  0.2494515244654094  0.2485300680301632  0.7483136539048452
  0.2496628084968594  0.7485455156357612  0.2484775448055047
  0.2496729524253896  0.7485654455227529  0.7484265436309396
  0.7494879412617107  0.2485956940172303  0.2483109437980955
  0.7494217491218615  0.2485246566605834  0.7482792562811781
  0.7496553736591304  0.7486520100421092  0.2484285352111342
  0.7496782883383118  0.7484721056333298  0.7484691791188192
  0.2486263490356951  0.0009377316344196  0.2486607440448198
  0.2507855755788576  0.2530947290946249  0.0005905647618237
  0.0001714105136461  0.2524969642341721  0.2501486445453944
  0.2518280904803918  0.0009153814745991  0.7527888812754486
  0.2495700195200485  0.2489857255243576  0.5006186928475624
  0.0001636006195168  0.2493200064711881  0.7512943501587253
  0.2517533866024320  0.5008915596941271  0.2527944913685663
  0.2493821131514977  0.7489984839301412  0.0005831888316926
  0.0001150423690522  0.7493676808539849  0.2514307540657085
  0.2484628650352214  0.5009707527913511  0.7486698130798662
  0.2508128215496011  0.7530826973255106  0.5005544149974301
  0.0000829931014042  0.7526735438397951  0.7499944629590273
  0.7517416754525851  0.0008763655781472  0.2529964874362597
  0.7495740545213709  0.2487582161170518  0.0006194245540030
  0.5001856282722487  0.2493888095478126  0.2513640739770159
  0.7484579602583243  0.0009455843679772  0.7485290126435774
  0.7507815894152200  0.2532025605115545  0.5006083829874007
  0.5001295592840932  0.2526823509049539  0.7501007628739802
  0.7486369577638461  0.5009007212652128  0.2485467354784969
  0.7508081398509308  0.7531676586103498  0.0005727941352045
  0.5000913447328830  0.7524946524512471  0.2499887858805014
  0.7518621547995351  0.5008905496650126  0.7530011370129748
  0.7493809357328076  0.7487366916191207  0.5005822331095094
  0.5001035075279114  0.7493085337121164  0.7514160452748312
 
  0.00000000E+00  0.00000000E+00  0.00000000E+00
  0.00000000E+00  0.00000000E+00  0.00000000E+00
  0.00000000E+00  0.00000000E+00  0.00000000E+00
  0.00000000E+00  0.00000000E+00  0.00000000E+00
  0.00000000E+00  0.00000000E+00  0.00000000E+00
  0.00000000E+00  0.00000000E+00  0.00000000E+00
  0.00000000E+00  0.00000000E+00  0.00000000E+00
  0.00000000E+00  0.00000000E+00  0.00000000E+00
  0.00000000E+00  0.00000000E+00  0.00000000E+00
  0.00000000E+00  0.00000000E+00  0.00000000E+00
  0.00000000E+00  0.00000000E+00  0.00000000E+00
  0.00000000E+00  0.00000000E+00  0.00000000E+00
  0.00000000E+00  0.00000000E+00  0.00000000E+00
  0.00000000E+00  0.00000000E+00  0.00000000E+00
  0.00000000E+00  0.00000000E+00  0.00000000E+00
  0.00000000E+00  0.00000000E+00  0.00000000E+00
  0.00000000E+00  0.00000000E+00  0.00000000E+00
  0.00000000E+00  0.00000000E+00  0.00000000E+00
  0.00000000E+00  0.00000000E+00  0.00000000E+00
  0.00000000E+00  0.00000000E+00  0.00000000E+00
  0.00000000E+00  0.00000000E+00  0.00000000E+00
  0.00000000E+00  0.00000000E+00  0.00000000E+00
  0.00000000E+00  0.00000000E+00  0.00000000E+00
  0.00000000E+00  0.00000000E+00  0.00000000E+00
  0.00000000E+00  0.00000000E+00  0.00000000E+00
  0.00000000E+00  0.00000000E+00  0.00000000E+00
  0.00000000E+00  0.00000000E+00  0.00000000E+00
  0.00000000E+00  0.00000000E+00  0.00000000E+00
  0.00000000E+00  0.00000000E+00  0.00000000E+00
  0.00000000E+00  0.00000000E+00  0.00000000E+00
  0.00000000E+00  0.00000000E+00  0.00000000E+00
  0.00000000E+00  0.00000000E+00  0.00000000E+00
  0.00000000E+00  0.00000000E+00  0.00000000E+00
  0.00000000E+00  0.00000000E+00  0.00000000E+00
  0.00000000E+00  0.00000000E+00  0.00000000E+00
  0.00000000E+00  0.00000000E+00  0.00000000E+00
  0.00000000E+00  0.00000000E+00  0.00000000E+00
  0.00000000E+00  0.00000000E+00  0.00000000E+00
  0.00000000E+00  0.00000000E+00  0.00000000E+00
  0.00000000E+00  0.00000000E+00  0.00000000E+00
