ALGO = Normal
EDIFF = 1e-06
EDIFFG = -0.02
EMAX = 13.60849513
EMIN = 1.6084951299999997
ENAUG = 1360
ENCUT = 680.0
IBRION = 2
ISIF = 3
ISMEAR = -5
ISPIN = 1
ISYM = 0
KPAR = 1
KSPACING = 0.25
LAECHG = False
LASPH = True
LCHARG = False
LELF = False
LMAXMIX = 4
LMIXTAU = True
LORBIT = 11
LREAL = Auto
LVTOT = False
LWAVE = False
MAGMOM = 4*5.0 4*0.0
METAGGA = R2scan
NBANDS = 62
NCORE = 32
NEDOS = 501
NELECT = 87.999999
NELM = 500
NSW = 0
POTIM = 0.25
PREC = Accurate
SIGMA = 0.05
TIME = 0.1
