Mg Zn Co Cu Ni O 
 1.0000000000000000
     0.0000000000000000    8.4000000000000004    8.4000000000000004
     8.4000000000000004    0.0000000000000000    8.4000000000000004
     8.4000000000000004    8.4000000000000004    0.0000000000000000
 Mg  Zn  Co  Cu  Ni  O  
  13  12  13  13  13  64
Direct
 -0.0010569673068389 -0.0014861232832426  0.5009899829887122
 -0.0025449129519383  0.0015428327547283  0.7504098705886111
 -0.0016703105491830  0.7504108436219660  0.2501878247317934
  0.2522337319477906  0.0004950871150844 -0.0015772390376163
  0.2496307104062313  0.2510110256896980  0.4990384259686335
  0.2510428752516585  0.5003559357239377  0.7489343503477212
  0.4999278501827539 -0.0009732167223260  0.5000828941636428
  0.4996572771271525  0.2491656049576456  0.0006481638871347
  0.4996815374539835  0.2495593494359163  0.2500372910807156
  0.7497695832520264  0.0000476843721679  0.2485384914773733
  0.7500390810551082  0.2470623861157002  0.0026173079792808
  0.7509627094610232  0.2506559022802535  0.2494782959397662
  0.7491987731255121  0.2508012384952875  0.4997962105604046
 -0.0000505053756387  0.7509683764923879 -0.0003227186684010
  0.2530160436494745 -0.0012688079226017  0.7490448904766925
  0.2505922551845034  0.2494648526629587  0.2501355314578463
  0.2511411972583178  0.5000497145113855 -0.0010367803316412
  0.2499589001973470  0.4999524441325414  0.2495938742989877
  0.2501251211875094  0.7491193082110863  0.2513967588485286
  0.4987197067722955 -0.0009323405652999  0.7515375741875421
  0.5001472722285851  0.2498056203432091  0.7496951933685139
  0.4986190053815631  0.5014360607174151 -0.0010479613919544
  0.7498586505836906  0.2507655118329888  0.7484277315273348
  0.7496749562129253  0.5013279679318026  0.7495473648968460
  0.7496126586570924  0.7490793187869600  0.0004664949252245
 -0.0025805887712320  0.0024717166011241 -0.0005854224863674
 -0.0017369377475485  0.2515113790990816  0.7493161442402598
  0.0012798420186828  0.5002061257439328 -0.0002980527264959
  0.0002301244206723  0.5013975367982888  0.2481216390715469
 -0.0007910729090013  0.5012087973067245  0.5002410665421519
  0.0002313197537083  0.7500117849830943  0.5004428176765803
 -0.0012522808289614  0.7524913569639504  0.7491832814189798
  0.2503428120592471  0.0010542492484850  0.4993986935731996
  0.2523161921008003  0.2481434246225374  0.7490665715786529
  0.2507512734461501  0.7488867188886099  0.4997643129284413
  0.4998159093614378  0.2507087214390565  0.5023690105467344
  0.4998873747728963  0.4997256613837921  0.4994180840430812
  0.7494446524777962  0.7498518090990257  0.7494812450602151
 -0.0005591037806061 -0.0002725509216992  0.2499437658118769
  0.0011941410194068  0.2470520813046408  0.2518420949756881
  0.0006727561675151  0.2489420294633464  0.4998420006193653
  0.2509749815181512  0.0005281299858069  0.2499764232378430
  0.2496210818148978  0.5016993268533900  0.4991958693956753
  0.2506859060936454  0.7487210293897816  0.7491778780765569
  0.5008745291567134  0.4989073082554537  0.2498298357489148
  0.4990142807646727  0.7519932333922821 -0.0007791206192235
  0.4989343770689235  0.7493765627511381  0.7512162231397748
  0.7479895521258099 -0.0004688996683632  0.0001691685750658
  0.7496926837924566  0.5024413553175412  0.0014631034933057
  0.7510848973633323  0.4997453601036640  0.2497439097552528
  0.7495082714993174  0.5002200052171182  0.5004960850372475
  0.0018471745532827  0.2486569884234349 -0.0011208125456558
  0.0002081448608081  0.5018654410778491  0.7494653764619732
  0.2500775222197149  0.2510393392937068 -0.0015720784320313
  0.2496062199993042  0.7505423795797264 -0.0010999346506290
  0.4999895018659011  0.0006026715256759  0.0002979262636723
  0.4989548741487047  0.0028686500373872  0.2520226507052380
  0.5018601079307371  0.4990614182995067  0.7485744795888352
  0.4999315593884726  0.7505404884194877  0.2490256079000210
  0.5005180728693400  0.7508503801874672  0.4987750752462757
  0.7491147829244770  0.0003444696294324  0.5012454900947826
  0.7505629224288243  0.0001878180084101  0.7504245280838108
  0.7508776666095800  0.7495498730711271  0.2487199312745196
  0.7506529356413939  0.7502498862004712  0.5004908523881810
 -0.1254729354581124  0.1240188531187127  0.1246307677348222
 -0.1256374420003037  0.1262959708981108  0.3758522155799603
 -0.1264958538361723  0.1251256122360043  0.6261041842710524
 -0.1239405879792056  0.1257280128783206  0.8737642222754232
 -0.1257693258089237  0.3765600655867756  0.1244751703626827
 -0.1261337900211848  0.3760046033260431  0.3748702593736484
 -0.1238897626026860  0.3735139373523255  0.6242832007741133
 -0.1244691772003835  0.3747548333888039  0.8736380212508801
 -0.1241636071736025  0.6248215401445600  0.1245201867131027
 -0.1234090176000332  0.6259622058013561  0.3730372668028205
 -0.1255401618360221  0.6256121409419780  0.6245320323694246
 -0.1233085477389588  0.6237493868374672  0.8746570549722129
 -0.1248769824754586  0.8753416211061856  0.1259510055652689
 -0.1258608004627472  0.8750724564010871  0.3760888643277563
 -0.1261488797444169  0.8731661914919474  0.6256153382880546
 -0.1271527984715641  0.8770615608953772  0.8751122420297831
  0.1245296001802894  0.1253724886589568  0.1230589788770503
  0.1254130291753280  0.1252404786339847  0.3743968230507181
  0.1258990603542286  0.1247119532699492  0.6245518854382798
  0.1253510409951696  0.1252899402700573  0.8743114357710645
  0.1236472826524183  0.3735260474855979  0.1265421084031176
  0.1251086584591967  0.3747300561071092  0.3753396104825106
  0.1259844237782701  0.3741172005472329  0.6262826903993255
  0.1235906716801634  0.3753946357047316  0.8753974289118428
  0.1246742469485975  0.6253167040771010  0.1241118850758360
  0.1245962442770542  0.6236928706845756  0.3751954261470711
  0.1249461139157485  0.6237835680797478  0.6242495268116314
  0.1248152225796895  0.6247666078237716  0.8744560931939205
  0.1256243400572141  0.8752391757277350  0.1260054409242156
  0.1251936399649257  0.8729836087165119  0.3765884454987916
  0.1263625774226651  0.8736347958566094  0.6239564375493334
  0.1241257720995695  0.8739211800137584  0.8759129963162789
  0.3770350706851419  0.1241889589567104  0.1244340182212442
  0.3759430002183464  0.1227822422511333  0.3763583771225454
  0.3748028653454096  0.1237745157320607  0.6255452680680784
  0.3749520910582138  0.1245772584642066  0.8748418718403271
  0.3741801599541931  0.3745111527730350  0.1265255624229271
  0.3754730156460730  0.3744473045396454  0.3747413494550403
  0.3762097549578147  0.3747662987523452  0.6242959041758464
  0.3748800622191585  0.3731893737296734  0.8760592945053440
  0.3757594784613665  0.6232470510536510  0.1248356879243121
  0.3750334589989766  0.6241601594632341  0.3746529837664396
  0.3737178895194331  0.6258398258087152  0.6245495397127359
  0.3720449177529633  0.6256770784157305  0.8780859763099190
  0.3757936577802797  0.8758537005945642  0.1248603713452671
  0.3753612757717419  0.8763159075424991  0.3738606986996456
  0.3739492986152190  0.8769407001249945  0.6239069918124172
  0.3755775020645392  0.8739780469676789  0.8757446946977394
  0.6249965635259260  0.1257012984951701  0.1252345896831908
  0.6248055310158300  0.1252746039988743  0.3747011254156827
  0.6258339107590795  0.1260889181320058  0.6246632234439279
  0.6263761826274384  0.1261264712623860  0.8743802027984394
  0.6249204113938042  0.3743615638536268  0.1257171580711763
  0.6261378897112722  0.3742331789871352  0.3758167705714327
  0.6226684861698382  0.3756638406696719  0.6260637425443537
  0.6255911744318310  0.3775877984786448  0.8727783033388519
  0.6234158656991521  0.6263851238551927  0.1251011264995927
  0.6255564198908992  0.6243747143202412  0.3749388440960861
  0.6251875737095809  0.6245489489776438  0.6265604407341328
  0.6259353033584991  0.6238688453828178  0.8747345407821309
  0.6247219142756448  0.8762659298265991  0.1250969932400683
  0.6244199770215285  0.8750451079776187  0.3753549705362502
  0.6265796584645703  0.8744175031949126  0.6264319306713981
  0.6255674578257261  0.8745683206003775  0.8752749146338463
