Mg13 Zn12 Co13 Cu13 Ni13 O64
1.0
   0.0000000000000000    8.4000000000000004    8.4000000000000004
   8.4000000000000004    0.0000000000000000    8.4000000000000004
   8.4000000000000004    8.4000000000000004    0.0000000000000000
Mg Zn Co Cu Ni O
13 12 13 13 13 64
direct
   0.0000000000000000    0.0000000000000000    0.5000000000000000 Mg
   0.0000000000000000    0.0000000000000000    0.7500000000000000 Mg
   0.0000000000000000    0.7500000000000000    0.2500000000000000 Mg
   0.2500000000000000    0.0000000000000000    0.0000000000000000 Mg
   0.2499999999999999    0.2499999999999999    0.5000000000000001 Mg
   0.2500000000000002    0.5000000000000002    0.7499999999999998 Mg
   0.4999999999999999   -0.0000000000000001    0.5000000000000001 Mg
   0.5000000000000000    0.2500000000000000    0.0000000000000000 Mg
   0.5000000000000000    0.2500000000000002    0.2499999999999999 Mg
   0.7500000000000000    0.0000000000000001    0.2499999999999999 Mg
   0.7500000000000000    0.2500000000000000    0.0000000000000000 Mg
   0.7499999999999999    0.2499999999999999    0.2500000000000001 Mg
   0.7500000000000000    0.2500000000000000    0.5000000000000000 Mg
   0.0000000000000000    0.7500000000000000    0.0000000000000000 Zn
   0.2499999999999998    0.0000000000000001    0.7500000000000000 Zn
   0.2500000000000000    0.2500000000000000    0.2500000000000000 Zn
   0.2500000000000000    0.5000000000000000    0.0000000000000000 Zn
   0.2500000000000002    0.5000000000000000    0.2499999999999999 Zn
   0.2499999999999999    0.7499999999999999    0.2500000000000001 Zn
   0.4999999999999999   -0.0000000000000001    0.7500000000000000 Zn
   0.5000000000000002    0.2500000000000002    0.7499999999999998 Zn
   0.5000000000000000    0.5000000000000000    0.0000000000000000 Zn
   0.7500000000000002    0.2500000000000002    0.7499999999999998 Zn
   0.7500000000000000    0.5000000000000000    0.7500000000000000 Zn
   0.7500000000000000    0.7500000000000000    0.0000000000000000 Zn
   0.0000000000000000    0.0000000000000000    0.0000000000000000 Co
   0.0000000000000001    0.2499999999999998    0.7500000000000000 Co
   0.0000000000000000    0.5000000000000000    0.0000000000000000 Co
   0.0000000000000001    0.5000000000000000    0.2499999999999999 Co
  -0.0000000000000001    0.4999999999999999    0.5000000000000001 Co
   0.0000000000000000    0.7500000000000000    0.5000000000000000 Co
   0.0000000000000000    0.7500000000000000    0.7500000000000000 Co
   0.2500000000000001    0.0000000000000001    0.4999999999999999 Co
   0.2499999999999999    0.2499999999999999    0.7499999999999999 Co
   0.2500000000000000    0.7500000000000000    0.5000000000000000 Co
   0.5000000000000000    0.2500000000000001    0.4999999999999999 Co
   0.5000000000000000    0.5000000000000000    0.5000000000000000 Co
   0.7500000000000000    0.7500000000000000    0.7500000000000000 Co
   0.0000000000000000    0.0000000000000000    0.2500000000000000 Cu
  -0.0000000000000001    0.2499999999999999    0.2500000000000001 Cu
   0.0000000000000001    0.2500000000000001    0.4999999999999999 Cu
   0.2499999999999999   -0.0000000000000001    0.2500000000000001 Cu
   0.2500000000000000    0.5000000000000000    0.5000000000000000 Cu
   0.2500000000000002    0.7500000000000002    0.7499999999999998 Cu
   0.5000000000000000    0.5000000000000000    0.2500000000000001 Cu
   0.5000000000000000    0.7500000000000000    0.0000000000000000 Cu
   0.5000000000000000    0.7500000000000000    0.7500000000000000 Cu
   0.7500000000000000    0.0000000000000000    0.0000000000000000 Cu
   0.7500000000000000    0.5000000000000000    0.0000000000000000 Cu
   0.7500000000000000    0.5000000000000000    0.2500000000000000 Cu
   0.7500000000000001    0.5000000000000001    0.4999999999999999 Cu
   0.0000000000000000    0.2500000000000000    0.0000000000000000 Ni
  -0.0000000000000001    0.4999999999999999    0.7500000000000000 Ni
   0.2500000000000000    0.2500000000000000    0.0000000000000000 Ni
   0.2500000000000000    0.7500000000000000    0.0000000000000000 Ni
   0.5000000000000000    0.0000000000000000    0.0000000000000000 Ni
   0.5000000000000000    0.0000000000000001    0.2499999999999999 Ni
   0.5000000000000001    0.5000000000000001    0.7499999999999999 Ni
   0.5000000000000000    0.7500000000000000    0.2500000000000000 Ni
   0.5000000000000001    0.7500000000000001    0.4999999999999999 Ni
   0.7500000000000000    0.0000000000000001    0.4999999999999999 Ni
   0.7500000000000000    0.0000000000000000    0.7500000000000000 Ni
   0.7500000000000000    0.7500000000000000    0.2500000000000000 Ni
   0.7500000000000000    0.7500000000000000    0.5000000000000000 Ni
  -0.1250000000000000    0.1250000000000000    0.1250000000000000 O
  -0.1250000000000000    0.1250000000000000    0.3750000000000000 O
  -0.1250000000000000    0.1250000000000000    0.6250000000000000 O
  -0.1250000000000000    0.1250000000000000    0.8750000000000000 O
  -0.1250000000000000    0.3750000000000000    0.1250000000000000 O
  -0.1249999999999999    0.3749999999999998    0.3750000000000001 O
  -0.1250000000000000    0.3750000000000000    0.6250000000000000 O
  -0.1250000000000000    0.3750000000000001    0.8750000000000000 O
  -0.1249999999999999    0.6250000000000000    0.1249999999999999 O
  -0.1249999999999999    0.6250000000000001    0.3749999999999999 O
  -0.1250000000000000    0.6250000000000000    0.6250000000000000 O
  -0.1249999999999999    0.6249999999999998    0.8750000000000001 O
  -0.1250000000000000    0.8750000000000000    0.1250000000000000 O
  -0.1250000000000001    0.8749999999999999    0.3750000000000001 O
  -0.1249999999999998    0.8749999999999998    0.6249999999999998 O
  -0.1249999999999999    0.8750000000000001    0.8749999999999999 O
   0.1250000000000000    0.1250000000000000    0.1250000000000000 O
   0.1250000000000000    0.1250000000000000    0.3750000000000000 O
   0.1250000000000000    0.1250000000000000    0.6250000000000000 O
   0.1250000000000000    0.1250000000000000    0.8750000000000000 O
   0.1250000000000000    0.3749999999999999    0.1250000000000000 O
   0.1250000000000001    0.3750000000000001    0.3749999999999999 O
   0.1250000000000000    0.3750000000000000    0.6250000000000000 O
   0.1250000000000001    0.3750000000000001    0.8750000000000000 O
   0.1250000000000001    0.6250000000000000    0.1249999999999999 O
   0.1249999999999999    0.6249999999999999    0.3750000000000001 O
   0.1250000000000000    0.6250000000000000    0.6250000000000000 O
   0.1250000000000003    0.6249999999999999    0.8749999999999999 O
   0.1250000000000000    0.8750000000000000    0.1250000000000000 O
   0.1250000000000001    0.8750000000000001    0.3749999999999999 O
   0.1250000000000002    0.8750000000000000    0.6249999999999999 O
   0.1250000000000000    0.8750000000000000    0.8750000000000000 O
   0.3749999999999999    0.1250000000000000    0.1250000000000000 O
   0.3750000000000001    0.1250000000000001    0.3749999999999999 O
   0.3750000000000000    0.1250000000000000    0.6250000000000000 O
   0.3750000000000001    0.1250000000000001    0.8750000000000000 O
   0.3750000000000000    0.3750000000000000    0.1250000000000000 O
   0.3750000000000000    0.3750000000000000    0.3750000000000000 O
   0.3750000000000000    0.3750000000000000    0.6250000000000000 O
   0.3750000000000000    0.3750000000000000    0.8750000000000000 O
   0.3750000000000001    0.6250000000000000    0.1250000000000000 O
   0.3750000000000000    0.6250000000000000    0.3750000000000000 O
   0.3750000000000001    0.6250000000000001    0.6249999999999999 O
   0.3750000000000002    0.6249999999999998    0.8750000000000000 O
   0.3749999999999999    0.8749999999999999    0.1250000000000001 O
   0.3750000000000000    0.8750000000000000    0.3750000000000000 O
   0.3750000000000003    0.8749999999999999    0.6249999999999999 O
   0.3749999999999999    0.8749999999999999    0.8750000000000001 O
   0.6249999999999999    0.1250000000000000    0.1250000000000000 O
   0.6249999999999999    0.1249999999999999    0.3750000000000001 O
   0.6250000000000000    0.1249999999999999    0.6250000000000000 O
   0.6250000000000001    0.1250000000000001    0.8749999999999999 O
   0.6250000000000000    0.3750000000000001    0.1250000000000000 O
   0.6250000000000000    0.3750000000000000    0.3750000000000000 O
   0.6250000000000001    0.3750000000000001    0.6249999999999999 O
   0.6250000000000000    0.3750000000000000    0.8750000000000000 O
   0.6250000000000000    0.6250000000000000    0.1249999999999999 O
   0.6250000000000000    0.6250000000000000    0.3750000000000000 O
   0.6250000000000000    0.6250000000000000    0.6250000000000000 O
   0.6250000000000000    0.6249999999999998    0.8750000000000001 O
   0.6250000000000000    0.8750000000000000    0.1250000000000000 O
   0.6250000000000001    0.8750000000000001    0.3749999999999999 O
   0.6250000000000000    0.8749999999999998    0.6250000000000001 O
   0.6249999999999999    0.8749999999999999    0.8750000000000001 O
