Sr Nb O                                 
   1.00000000000000     
     8.1125835205165586    0.0000000000000000    0.0000000000000000
     0.0000000000000000    8.1125835205165586    0.0000000000000000
     0.0000000000000000    0.0000000000000000    8.1125835205165586
   Sr   Nb   O 
     8     8    24
Direct
  0.9999043024879981  0.0104808656124504  0.9919577507052182
  0.9999588060367088  0.0084961956950877  0.4897855478775170
  0.9999392446150779  0.5083522328146586  0.9897285363561252
  0.9998973383917047  0.5101645890668181  0.4916253912541961
  0.4999729305314347  0.9900812578518483  0.0084441821887253
  0.4998807399166623  0.9921465253729522  0.5103571021651447
  0.4998676700149716  0.4919353194387668  0.0102294427797531
  0.4999846722059189  0.4901765234536413  0.5080622976167390
  0.2498876088788009  0.2503119641783798  0.2499476902187325
  0.2498647274747796  0.2504063453334169  0.7499321135769748
  0.2498986226026716  0.7502920848895442  0.2501236297783862
  0.2499047063865945  0.7503772003454046  0.7501289050617430
  0.7498279378665700  0.2502966722676803  0.2499307602158396
  0.7498695022266659  0.2503629529048865  0.7499227114269047
  0.7499574801762492  0.7502810549876529  0.2501259882080475
  0.7499203158547658  0.7504090571611854  0.7500830141584771
  0.2270098286231601  0.0000531868840596  0.2224890404454243
  0.2268403079623340  0.2777254105012048  0.9999048883907093
  0.9998171695149267  0.2698294238898313  0.2753078324866891
  0.2730133052550059  0.0004832113884135  0.7774572703496290
  0.2729375042006055  0.2228666953464113  0.5000133758754757
  0.9999843242468742  0.2246193122067766  0.7303920780369069
  0.2728506426105710  0.5004203134237173  0.2775753520213868
  0.2733352270404481  0.7228925417347725  0.0001911524712668
  0.0000460188628111  0.7247460168598252  0.2300206609986262
  0.2267851224886357  0.5001787432483340  0.7226194375329555
  0.2265437437260545  0.7775711614506093  0.4999995779172863
  0.9998349171636960  0.7699835320194310  0.7758726838204382
  0.7729729424376686  0.0002667647862751  0.2228440434794621
  0.7728596932159775  0.2773681810674233  0.0000476023758935
  0.4999689886637526  0.2305044390203790  0.2245707389819103
  0.7266968983030253  0.0002431451773859  0.7770177052849547
  0.7270353541363406  0.2231466459829079  0.4998407896278536
  0.4997771994755169  0.2759546987231118  0.7694267882051733
  0.7268778665042390  0.5001818920288841  0.2771418134279529
  0.7266201830862116  0.7231583821003156  0.9999595961933991
  0.4998219439057436  0.7756157691233483  0.2701611330181919
  0.7731115983262882  0.5003712712395227  0.7229632084419322
  0.7731972049447862  0.7772801239233900  0.5001712318639022
  0.4999910171645681  0.7306581780273333  0.7242323917208822
 
  0.00000000E+00  0.00000000E+00  0.00000000E+00
  0.00000000E+00  0.00000000E+00  0.00000000E+00
  0.00000000E+00  0.00000000E+00  0.00000000E+00
  0.00000000E+00  0.00000000E+00  0.00000000E+00
  0.00000000E+00  0.00000000E+00  0.00000000E+00
  0.00000000E+00  0.00000000E+00  0.00000000E+00
  0.00000000E+00  0.00000000E+00  0.00000000E+00
  0.00000000E+00  0.00000000E+00  0.00000000E+00
  0.00000000E+00  0.00000000E+00  0.00000000E+00
  0.00000000E+00  0.00000000E+00  0.00000000E+00
  0.00000000E+00  0.00000000E+00  0.00000000E+00
  0.00000000E+00  0.00000000E+00  0.00000000E+00
  0.00000000E+00  0.00000000E+00  0.00000000E+00
  0.00000000E+00  0.00000000E+00  0.00000000E+00
  0.00000000E+00  0.00000000E+00  0.00000000E+00
  0.00000000E+00  0.00000000E+00  0.00000000E+00
  0.00000000E+00  0.00000000E+00  0.00000000E+00
  0.00000000E+00  0.00000000E+00  0.00000000E+00
  0.00000000E+00  0.00000000E+00  0.00000000E+00
  0.00000000E+00  0.00000000E+00  0.00000000E+00
  0.00000000E+00  0.00000000E+00  0.00000000E+00
  0.00000000E+00  0.00000000E+00  0.00000000E+00
  0.00000000E+00  0.00000000E+00  0.00000000E+00
  0.00000000E+00  0.00000000E+00  0.00000000E+00
  0.00000000E+00  0.00000000E+00  0.00000000E+00
  0.00000000E+00  0.00000000E+00  0.00000000E+00
  0.00000000E+00  0.00000000E+00  0.00000000E+00
  0.00000000E+00  0.00000000E+00  0.00000000E+00
  0.00000000E+00  0.00000000E+00  0.00000000E+00
  0.00000000E+00  0.00000000E+00  0.00000000E+00
  0.00000000E+00  0.00000000E+00  0.00000000E+00
  0.00000000E+00  0.00000000E+00  0.00000000E+00
  0.00000000E+00  0.00000000E+00  0.00000000E+00
  0.00000000E+00  0.00000000E+00  0.00000000E+00
  0.00000000E+00  0.00000000E+00  0.00000000E+00
  0.00000000E+00  0.00000000E+00  0.00000000E+00
  0.00000000E+00  0.00000000E+00  0.00000000E+00
  0.00000000E+00  0.00000000E+00  0.00000000E+00
  0.00000000E+00  0.00000000E+00  0.00000000E+00
  0.00000000E+00  0.00000000E+00  0.00000000E+00
