Sr Nb O                                 
   1.00000000000000     
     4.0676044740161750    0.0000000000000000    0.0000000000000000
     0.0000000000000000    4.0676044740161750    0.0000000000000000
     0.0000000000000000    0.0000000000000000    4.0676044740161750
   Sr   Nb   O 
     1     1     3
Direct
  0.9994791332464317  0.9996796257542044  0.0021897752798665
  0.4997994960190724  0.5006380386665583  0.5022316935542364
  0.4999138736081079  0.0007208000113224  0.5024932300771923
  0.4998472084160070  0.5008203423724851  0.0022919746563517
  0.9998090847093835  0.5010359118200185  0.5022864469465560
 
  0.00000000E+00  0.00000000E+00  0.00000000E+00
  0.00000000E+00  0.00000000E+00  0.00000000E+00
  0.00000000E+00  0.00000000E+00  0.00000000E+00
  0.00000000E+00  0.00000000E+00  0.00000000E+00
  0.00000000E+00  0.00000000E+00  0.00000000E+00
