Sr Nb O
1.0
   4.0676044740161750    0.0000000000000000    0.0000000000000000
   0.0000000000000000    4.0676044740161750    0.0000000000000000
   0.0000000000000000    0.0000000000000000    4.0676044740161750
Sr Nb O
1 1 3
direct
   0.9994791332464299    0.9996796257542031    0.0021897752798634 Sr
   0.4997994960190756    0.5006380386665581    0.5022316935542335 Nb
   0.4999138736081113    0.0007208000113246    0.5024932300771887 O
   0.4998472084160046    0.5008203423724872    0.0022919746563547 O
   0.9998090847093810    0.5010359118200156    0.5022864469465556 O
