ALGO = Normal
EDIFF = 1e-06
EDIFFG = -0.02
EMAX = 9.34072084
EMIN = -2.65927916
ENAUG = 1360
ENCUT = 680.0
IBRION = 2
ISIF = 3
ISMEAR = -5
ISPIN = 1
ISYM = 8
KPAR = 1
KSPACING = 0.25
LAECHG = False
LASPH = True
LCHARG = False
LELF = False
LMAXMIX = 4
LMIXTAU = True
LORBIT = 11
LREAL = Auto
LVTOT = False
LWAVE = False
MAGMOM = 8*0.0 8*5.0 24*0.0
METAGGA = R2scan
NBANDS = 218
NCORE = 32
NEDOS = 501
NELECT = 303.999999
NELM = 500
NSW = 0
POTIM = 0.25
PREC = Accurate
SIGMA = 0.05
TIME = 0.1
