Sr Ti O                                 
   1.00000000000000     
     7.8260387345291225    0.0000332324748675   -0.0000158461069132
     0.0000335417106904    7.8259014007558072    0.0000181918956607
    -0.0000157760011562    0.0000181403390103    7.8258023808803836
   Sr   Ti   O 
     8     8    24
Direct
  0.9997361526882138  0.9998419062439980  0.0001185319029249
 -0.0000258448770010  0.9998953769218993  0.5002519807794462
  0.9997626936327139  0.4999234697480183  0.0001378756799189
  0.9999113070022859  0.5000218523730598  0.5001280051907899
  0.4998056535352341  0.9999108995428116  0.0000564600298431
  0.4998935342207609  0.9999708362704021  0.5002253398875264
  0.4998248880584378  0.4998728515382632  0.0001420587375719
  0.4998460718723740  0.4997794421603806  0.5001987806459063
  0.2494442919167252  0.2498911305703884  0.2500808946495948
  0.2495903491460236  0.2499382893859128  0.7501245116145533
  0.2493947218170280  0.7499405170227739  0.2500716948100403
  0.2496324004933576  0.7499492440717709  0.7500980965026675
  0.7494738962878861  0.2503160851081206  0.2498475193017041
  0.7496437818374175  0.2501728853796146  0.7498366208227848
  0.7493717591252875  0.7503541139664783  0.2508792844962842
  0.7496279164997951  0.7501738579866231  0.7508472866666005
  0.2500137084444906  0.9995684289813569  0.2503973098479486
  0.2502125533151527  0.2493619137256598  0.0001093032224812
  0.0003789030817810  0.2494454288923210  0.2505391928187111
  0.2502230070483194  0.9998983478598363  0.7497474309881710
  0.2508305231441542  0.2500285908544937  0.5001760946363358
  0.0004371598952734  0.2502336294521608  0.7500513949672106
  0.2504494292143365  0.4995349324809382  0.2496094033742493
  0.2503716707506761  0.7501375425846231  0.9999217135085218
  0.0002477403282896  0.7491154895830630  0.2495792431958010
  0.2504672084873099  0.4999427829026143  0.7503591296214668
  0.2498173466406375  0.7493967429469123  0.4999517794441228
  0.0002069519588955  0.7499358877103901  0.7500588434038239
  0.7504040125054122  0.9994150135475535  0.2503339030516424
  0.7508376412341302  0.2490506391540652  0.0000689328476029
  0.5003458761098247  0.2491823315250841  0.2499881296052120
  0.7505475483885483  0.9997900629367240  0.7494389025025093
  0.7502017805130324  0.2499425933080322  0.5001028648658483
  0.5004524314811050  0.2499276617133827  0.7505332057423143
  0.7500269334345622  0.4993894798215423  0.2495573068529575
  0.7498763853133181  0.7500035678256146  0.9998867786625322
  0.5002291821555409  0.7495882454368840  0.2501354756599869
  0.7501613892670926  0.4997997432305553  0.7504779402423336
  0.7504803393346471  0.7490064628017655  0.4998445210121054
  0.5002469294748522  0.7503298070593201  0.7496858870621725
 
  0.00000000E+00  0.00000000E+00  0.00000000E+00
  0.00000000E+00  0.00000000E+00  0.00000000E+00
  0.00000000E+00  0.00000000E+00  0.00000000E+00
  0.00000000E+00  0.00000000E+00  0.00000000E+00
  0.00000000E+00  0.00000000E+00  0.00000000E+00
  0.00000000E+00  0.00000000E+00  0.00000000E+00
  0.00000000E+00  0.00000000E+00  0.00000000E+00
  0.00000000E+00  0.00000000E+00  0.00000000E+00
  0.00000000E+00  0.00000000E+00  0.00000000E+00
  0.00000000E+00  0.00000000E+00  0.00000000E+00
  0.00000000E+00  0.00000000E+00  0.00000000E+00
  0.00000000E+00  0.00000000E+00  0.00000000E+00
  0.00000000E+00  0.00000000E+00  0.00000000E+00
  0.00000000E+00  0.00000000E+00  0.00000000E+00
  0.00000000E+00  0.00000000E+00  0.00000000E+00
  0.00000000E+00  0.00000000E+00  0.00000000E+00
  0.00000000E+00  0.00000000E+00  0.00000000E+00
  0.00000000E+00  0.00000000E+00  0.00000000E+00
  0.00000000E+00  0.00000000E+00  0.00000000E+00
  0.00000000E+00  0.00000000E+00  0.00000000E+00
  0.00000000E+00  0.00000000E+00  0.00000000E+00
  0.00000000E+00  0.00000000E+00  0.00000000E+00
  0.00000000E+00  0.00000000E+00  0.00000000E+00
  0.00000000E+00  0.00000000E+00  0.00000000E+00
  0.00000000E+00  0.00000000E+00  0.00000000E+00
  0.00000000E+00  0.00000000E+00  0.00000000E+00
  0.00000000E+00  0.00000000E+00  0.00000000E+00
  0.00000000E+00  0.00000000E+00  0.00000000E+00
  0.00000000E+00  0.00000000E+00  0.00000000E+00
  0.00000000E+00  0.00000000E+00  0.00000000E+00
  0.00000000E+00  0.00000000E+00  0.00000000E+00
  0.00000000E+00  0.00000000E+00  0.00000000E+00
  0.00000000E+00  0.00000000E+00  0.00000000E+00
  0.00000000E+00  0.00000000E+00  0.00000000E+00
  0.00000000E+00  0.00000000E+00  0.00000000E+00
  0.00000000E+00  0.00000000E+00  0.00000000E+00
  0.00000000E+00  0.00000000E+00  0.00000000E+00
  0.00000000E+00  0.00000000E+00  0.00000000E+00
  0.00000000E+00  0.00000000E+00  0.00000000E+00
  0.00000000E+00  0.00000000E+00  0.00000000E+00
