Sr8 Ti8 O24
1.0
   8.0000000000000000    0.0000000000000000    0.0000000000000000
   0.0000000000000000    8.0000000000000000    0.0000000000000000
   0.0000000000000000    0.0000000000000000    8.0000000000000000
Sr Ti O
8 8 24
direct
   0.0000000000000000    0.0000000000000000    0.0000000000000000 Sr
   0.0000000000000000    0.0000000000000000    0.5000000000000000 Sr
   0.0000000000000000    0.5000000000000000    0.0000000000000000 Sr
   0.0000000000000000    0.5000000000000000    0.5000000000000000 Sr
   0.5000000000000000    0.0000000000000000    0.0000000000000000 Sr
   0.5000000000000000    0.0000000000000000    0.5000000000000000 Sr
   0.5000000000000000    0.5000000000000000    0.0000000000000000 Sr
   0.5000000000000000    0.5000000000000000    0.5000000000000000 Sr
   0.2500000000000000    0.2500000000000000    0.2500000000000000 Ti
   0.2500000000000000    0.2500000000000000    0.7500000000000000 Ti
   0.2500000000000000    0.7500000000000000    0.2500000000000000 Ti
   0.2500000000000000    0.7500000000000000    0.7500000000000000 Ti
   0.7500000000000000    0.2500000000000000    0.2500000000000000 Ti
   0.7500000000000000    0.2500000000000000    0.7500000000000000 Ti
   0.7500000000000000    0.7500000000000000    0.2500000000000000 Ti
   0.7500000000000000    0.7500000000000000    0.7500000000000000 Ti
   0.2500000000000000    0.0000000000000000    0.2500000000000000 O
   0.2500000000000000    0.2500000000000000    0.0000000000000000 O
   0.0000000000000000    0.2500000000000000    0.2500000000000000 O
   0.2500000000000000    0.0000000000000000    0.7500000000000000 O
   0.2500000000000000    0.2500000000000000    0.5000000000000000 O
   0.0000000000000000    0.2500000000000000    0.7500000000000000 O
   0.2500000000000000    0.5000000000000000    0.2500000000000000 O
   0.2500000000000000    0.7500000000000000    0.0000000000000000 O
   0.0000000000000000    0.7500000000000000    0.2500000000000000 O
   0.2500000000000000    0.5000000000000000    0.7500000000000000 O
   0.2500000000000000    0.7500000000000000    0.5000000000000000 O
   0.0000000000000000    0.7500000000000000    0.7500000000000000 O
   0.7500000000000000    0.0000000000000000    0.2500000000000000 O
   0.7500000000000000    0.2500000000000000    0.0000000000000000 O
   0.5000000000000000    0.2500000000000000    0.2500000000000000 O
   0.7500000000000000    0.0000000000000000    0.7500000000000000 O
   0.7500000000000000    0.2500000000000000    0.5000000000000000 O
   0.5000000000000000    0.2500000000000000    0.7500000000000000 O
   0.7500000000000000    0.5000000000000000    0.2500000000000000 O
   0.7500000000000000    0.7500000000000000    0.0000000000000000 O
   0.5000000000000000    0.7500000000000000    0.2500000000000000 O
   0.7500000000000000    0.5000000000000000    0.7500000000000000 O
   0.7500000000000000    0.7500000000000000    0.5000000000000000 O
   0.5000000000000000    0.7500000000000000    0.7500000000000000 O
