Sr Ti O 
 1.0000000000000000
     8.0000000000000000    0.0000000000000000    0.0000000000000000
     0.0000000000000000    8.0000000000000000    0.0000000000000000
     0.0000000000000000    0.0000000000000000    8.0000000000000000
 Sr  Ti  O  
   8   8  24
Cartesian
  0.0017251946894025  0.0163548253221810  0.0003733640275248
 -0.0088414968545442 -0.0114319225572033  3.9937863396008417
 -0.0134864958255505  3.9918026896521877 -0.0013425389957660
  0.0159960004304352  3.9971639636578784  3.9949366018268093
  4.0006890842420626  0.0145225950495289 -0.0163909560715995
  3.9968734055874067 -0.0087126642747446  3.9954331760364679
  3.9987753327602693  3.9954893769302644 -0.0109228373635020
  3.9863782032280217  3.9983401303094519  4.0064538908570162
  2.0081507352149002  1.9998144030665688  2.0043338067701435
  2.0037483656653228  1.9911093901897232  6.0041227425462722
  1.9896967613781216  5.9965879857342639  1.9795621332856064
  1.9926236188471100  6.0135830043762581  5.9969810059225965
  5.9956799394781291  1.9986149583581536  2.0036418180317255
  6.0103147164973301  2.0077661497442709  5.9987237329339234
  6.0009788919061560  5.9843366916267371  1.9963787790615430
  6.0021287088702939  6.0026593464266744  5.9860266619067346
  2.0019948576269222 -0.0023093353785886  2.0013683540445943
  2.0184834367654370  2.0106445024420303 -0.0153741076906138
  0.0007446025989506  2.0129183709174736  2.0096663913114794
  2.0042195017359949  0.0179578424519679  5.9982044861725559
  2.0098244256731563  2.0073638033902568  3.9912800531248980
  0.0032279342079500  1.9771029798005495  6.0129412987010493
  2.0041664135686759  4.0052030147460425  2.0050998650505725
  1.9963921255533117  5.9868123906798312 -0.0023630491287584
  0.0068721207940057  6.0009993755487185  2.0090595223741885
  1.9881079750717503  4.0027017742218733  5.9987713087313832
  2.0106552037765533  6.0089070646622833  3.9971329573722882
 -0.0002133746029269  6.0091932130411818  5.9929385290178336
  5.9915179390751465 -0.0107444925409190  2.0004802182396437
  5.9954130235065932  1.9919695548099454 -0.0057794597886846
  4.0078949770039829  1.9875024555037100  2.0072246266078806
  5.9999057908497377  0.0297198979201098  5.9987779847858222
  6.0126501180313312  2.0000737901919541  3.9820308900962598
  3.9946274126345678  2.0045327080965913  6.0091881226053587
  5.9884028030978103  4.0065735523592068  2.0109069152907963
  5.9824449069208487  6.0147405914181205 -0.0000639649556574
  3.9815853369196605  5.9974423284998224  2.0158428377192621
  5.9983850724266707  3.9930121795001345  6.0069565815245705
  5.9964555122162073  5.9803932480088262  4.0108162314648208
  4.0022736926211424  6.0142160036672170  5.9968340486989700
