Sr Ti O 
 1.0000000000000000
     8.0000000000000000    0.0000000000000000    0.0000000000000000
     0.0000000000000000    8.0000000000000000    0.0000000000000000
     0.0000000000000000    0.0000000000000000    8.0000000000000000
 Sr  Ti  O  
   8   8  24
Cartesian
 -0.0182642381263598 -0.0068226966103039  0.0036808798810888
  0.0014906796022782  0.0068390607176680  4.0043378646801466
 -0.0143668321268048  4.0141614914800474  0.0072162299018542
 -0.0024159728314540  4.0154907624716625  3.9918900289445460
  3.9939475848593906  0.0111881320881922 -0.0035413193138129
  3.9953284723192817  0.0010567722596528  4.0080497011429150
  3.9952940416802116  3.9914811119662317  0.0082832831459109
  3.9909379967475243  3.9991268629076395  3.9946426231557650
  2.0060724873130451  1.9901721094561631  1.9938983963026897
  2.0074912423088458  2.0006371021016340  6.0063097976256694
  2.0013307885714764  5.9905829580104903  1.9970567027468928
  2.0011248370823131  5.9937118102751850  5.9968758626160401
  6.0005934100999276  2.0057932931134319  1.9912400045030603
  6.0002907005090620  2.0010947763578373  5.9944443965319918
  5.9916099987199365  5.9908748200420208  2.0203509930532970
  6.0105407132461348  5.9979085741795535  6.0067846076019062
  2.0092195627137062  0.0071508457476463  1.9971376617457055
  2.0107717509936713  1.9917041969184408 -0.0088558826755979
  0.0069680637457961  2.0039901513968652  2.0161689479312841
  1.9962645843072910 -0.0014183706294971  5.9892561311332484
  2.0029691681912061  2.0005976995815353  3.9946988923593971
  0.0118971026260622  2.0129577013795239  5.9953651472096521
  2.0023042695549051  3.9843948582834279  1.9997104374776555
  1.9961690850905049  5.9957975905184870  0.0062345449892130
 -0.0018562444756998  5.9926754748375259  1.9999933638892631
  2.0130682337555239  3.9985668544561737  6.0073633913344411
  2.0010146778985054  5.9959261889965640  4.0057267887967951
  0.0010677945911119  6.0066922405479870  6.0117506211050671
  5.9926950576734761  0.0006040535840604  2.0217372021884250
  6.0104685531218411  1.9956882507707667  0.0113447617669264
  4.0139405379005284  1.9799645037833489  2.0062297803349738
  6.0009373644118886 -0.0092200229643309  5.9965934885345789
  6.0102610494554485  2.0035340952828244  3.9875200944855527
  3.9697842815698885  2.0080773172121664  6.0094658932257072
  5.9915262712868227  3.9985246577019220  1.9921235992334352
  6.0061422486461620  5.9873849234729581  0.0118362280713737
  3.9929381222445994  5.9875813847788466  2.0062270198113383
  6.0051867520357787  4.0032848944302994  5.9898420004204089
  5.9899813874778660  5.9877901154691333  3.9790279032739293
  4.0244762134315959  6.0002781306297619  5.9807789616711720
