ALGO = Normal
EDIFF = 1e-06
EDIFFG = -0.02
EMAX = 11.87189156
EMIN = -0.1281084400000001
ENAUG = 1360
ENCUT = 680.0
IBRION = 2
ISIF = 8
ISMEAR = -5
ISPIN = 2
ISYM = 0
KPAR = 1
KSPACING = 0.5
LAECHG = False
LASPH = True
LCHARG = False
LELF = False
LMAXMIX = 4
LMIXTAU = True
LORBIT = 11
LREAL = Auto
LVTOT = False
LWAVE = False
MAGMOM = 1*0.0 1*5.0 3*0.0
METAGGA = R2scan
NBANDS = 38
NCORE = 4
NEDOS = 501
NELECT = 38.999999
NELM = 500
NSW = 0
POTIM = 0.25
PREC = Accurate
SIGMA = 0.05
TIME = 0.1
