Sr Nb O 
 1.0000000000000000
     4.0000000000000000    0.0000000000000000    0.0000000000000000
     0.0000000000000000    4.0000000000000000    0.0000000000000000
     0.0000000000000000    0.0000000000000000    4.0000000000000000
 Sr  Nb  O  
   1   1   3
Cartesian
 -0.0028574899422306 -0.0063205483880525  0.0044718424679498
  2.0036579659549205  2.0103227475347287  2.0069272490380050
  2.0084535735557467 -0.0007107029859662  2.0120597186619928
  1.9956001801509897  1.9911387061959778  0.0279798226894211
 -0.0094590457234110  2.0171486721416336  1.9945338491994309
