Ni32 O32                                
   1.00000000000000     
     8.3180533167053010   -0.0022404233790411   -0.0022369354130698
    -0.0022397074897520    8.3180347953538387   -0.0022369353491960
    -0.0022359494502622   -0.0022353898802235    8.3183491504149618
   Ni   O 
    32    32
Direct
  0.0000037102678760  0.0000000338670318  0.0000000554057351
  0.0000037231421430  0.2500000654797105  0.2500000272111222
  0.2500036761541438  0.0000000310592227  0.2500000522087831
  0.2500036747857095  0.2500001057834922  0.0000000117180790
  0.0000037307450427  0.0000000166232539  0.5000000470723478
  0.0000037081816373  0.2500000086044167  0.7500000203226804
  0.2500036557954246  0.0000000692348010  0.7499999672232818
  0.2500037292733097  0.2500000458730298  0.5000000265555684
  0.0000036844590312  0.5000000648699370  0.0000000550448860
  0.0000037238854631  0.7500000878458124  0.2500000235617961
  0.2500036746963445  0.5000001216648542  0.2500000393273538
  0.2500036566401178  0.7500000705847611  0.0000000309092059
  0.0000037171378153  0.5000001298421353  0.4999999874671488
  0.0000036683310398  0.7500000948064240  0.7500000370519899
  0.2500037178006451  0.5000001271614565  0.7499999908914745
  0.2500036690142124  0.7500000915573679  0.5000000825202449
  0.5000036447815219  0.0000000526684332  0.0000000230623414
  0.5000037135640483  0.2500000829495761  0.2500000383730665
  0.7500037433967961  0.0000000141020209  0.2500000340649322
  0.7500037258638557  0.2500000414990780  0.0000000302821732
  0.5000037024879163  0.0000000907424607  0.5000000747958495
  0.5000037047081278  0.2500000967837508  0.7500000060418230
  0.7500036545641464  0.9999999907378125  0.7499999869655625
  0.7500037014833438  0.2500000616189268  0.5000000222614602
  0.5000036934659633  0.5000001196534640  0.0000000508001605
  0.5000036515554811  0.7500000814358287  0.2500000215104095
  0.7500037003347941  0.5000000837372198  0.2500000718555100
  0.7500036969249564  0.7500000261142858  0.0000000160557079
  0.5000036923483080  0.5000000825504003  0.5000000850728341
  0.5000036311673526  0.7500000817435506  0.7500000626277554
  0.7500036735576430  0.5000000729224325  0.7500000882257538
  0.7500037519647691  0.7500000396680093  0.5000000405154381
  0.2499963382816262  0.9999998745114453  0.0000000167802625
  0.2499962703965224  0.2499999539989588  0.2500000129131479
  0.9999963701880645  0.9999998951957352  0.2499999529844885
  0.9999963082483987  0.2499998804973416  0.9999999349555964
  0.2499962767760522  0.9999999645598336  0.4999999213719590
  0.2499962970875202  0.2499999457018234  0.7499998896167099
  0.9999962776616798  0.9999998744425298  0.7499999924326559
  0.9999963834371570  0.2499999439381853  0.4999999652344229
  0.2499962889446365  0.4999999840207749  0.9999999390712446
  0.2499963068839293  0.7499999259243637  0.2499998912464250
  0.9999963223214650  0.4999999572872156  0.2499999937213815
  0.9999962833369196  0.7499998539690864  0.9999999054282043
  0.2499962825293593  0.5000000151545194  0.5000000065226189
  0.2499963302080772  0.7499999652505593  0.7499999931692969
  0.9999963266446485  0.4999999644761317  0.7499999556388843
  0.9999963115700936  0.7499999791015028  0.4999999007258751
  0.7499963001732013  0.9999999126585095  0.9999999306587171
  0.7499962898635033  0.2499999141357208  0.2499999330538074
  0.4999962972246905  0.9999999603453134  0.2499999325887146
  0.4999962370396176  0.2499999849588761  0.9999999551841796
  0.7499963669992553  0.9999999315962640  0.4999999318466735
  0.7499963354114314  0.2499999439253884  0.7499999691381447
  0.4999963017163154  0.9999999485385160  0.7499999409307421
  0.4999963037820763  0.2499999084653481  0.4999999823933976
  0.7499962934266762  0.4999998043603711  0.0000000092449923
  0.7499963196009602  0.7499999104014208  0.2500000979769510
  0.4999963108389878  0.4999998386792086  0.2500000562938638
  0.4999963156862606  0.7499998780749948  0.0000000205535784
  0.7499963138483849  0.4999999697939188  0.4999999653027913
  0.7499962997660887  0.7499999433534583  0.7499999481200774
  0.4999962654497239  0.5000000079714582  0.7499999952850871
  0.4999962721777038  0.7499999809262761  0.4999999526125904
 
  0.00000000E+00  0.00000000E+00  0.00000000E+00
  0.00000000E+00  0.00000000E+00  0.00000000E+00
  0.00000000E+00  0.00000000E+00  0.00000000E+00
  0.00000000E+00  0.00000000E+00  0.00000000E+00
  0.00000000E+00  0.00000000E+00  0.00000000E+00
  0.00000000E+00  0.00000000E+00  0.00000000E+00
  0.00000000E+00  0.00000000E+00  0.00000000E+00
  0.00000000E+00  0.00000000E+00  0.00000000E+00
  0.00000000E+00  0.00000000E+00  0.00000000E+00
  0.00000000E+00  0.00000000E+00  0.00000000E+00
  0.00000000E+00  0.00000000E+00  0.00000000E+00
  0.00000000E+00  0.00000000E+00  0.00000000E+00
  0.00000000E+00  0.00000000E+00  0.00000000E+00
  0.00000000E+00  0.00000000E+00  0.00000000E+00
  0.00000000E+00  0.00000000E+00  0.00000000E+00
  0.00000000E+00  0.00000000E+00  0.00000000E+00
  0.00000000E+00  0.00000000E+00  0.00000000E+00
  0.00000000E+00  0.00000000E+00  0.00000000E+00
  0.00000000E+00  0.00000000E+00  0.00000000E+00
  0.00000000E+00  0.00000000E+00  0.00000000E+00
  0.00000000E+00  0.00000000E+00  0.00000000E+00
  0.00000000E+00  0.00000000E+00  0.00000000E+00
  0.00000000E+00  0.00000000E+00  0.00000000E+00
  0.00000000E+00  0.00000000E+00  0.00000000E+00
  0.00000000E+00  0.00000000E+00  0.00000000E+00
  0.00000000E+00  0.00000000E+00  0.00000000E+00
  0.00000000E+00  0.00000000E+00  0.00000000E+00
  0.00000000E+00  0.00000000E+00  0.00000000E+00
  0.00000000E+00  0.00000000E+00  0.00000000E+00
  0.00000000E+00  0.00000000E+00  0.00000000E+00
  0.00000000E+00  0.00000000E+00  0.00000000E+00
  0.00000000E+00  0.00000000E+00  0.00000000E+00
  0.00000000E+00  0.00000000E+00  0.00000000E+00
  0.00000000E+00  0.00000000E+00  0.00000000E+00
  0.00000000E+00  0.00000000E+00  0.00000000E+00
  0.00000000E+00  0.00000000E+00  0.00000000E+00
  0.00000000E+00  0.00000000E+00  0.00000000E+00
  0.00000000E+00  0.00000000E+00  0.00000000E+00
  0.00000000E+00  0.00000000E+00  0.00000000E+00
  0.00000000E+00  0.00000000E+00  0.00000000E+00
  0.00000000E+00  0.00000000E+00  0.00000000E+00
  0.00000000E+00  0.00000000E+00  0.00000000E+00
  0.00000000E+00  0.00000000E+00  0.00000000E+00
  0.00000000E+00  0.00000000E+00  0.00000000E+00
  0.00000000E+00  0.00000000E+00  0.00000000E+00
  0.00000000E+00  0.00000000E+00  0.00000000E+00
  0.00000000E+00  0.00000000E+00  0.00000000E+00
  0.00000000E+00  0.00000000E+00  0.00000000E+00
  0.00000000E+00  0.00000000E+00  0.00000000E+00
  0.00000000E+00  0.00000000E+00  0.00000000E+00
  0.00000000E+00  0.00000000E+00  0.00000000E+00
  0.00000000E+00  0.00000000E+00  0.00000000E+00
  0.00000000E+00  0.00000000E+00  0.00000000E+00
  0.00000000E+00  0.00000000E+00  0.00000000E+00
  0.00000000E+00  0.00000000E+00  0.00000000E+00
  0.00000000E+00  0.00000000E+00  0.00000000E+00
  0.00000000E+00  0.00000000E+00  0.00000000E+00
  0.00000000E+00  0.00000000E+00  0.00000000E+00
  0.00000000E+00  0.00000000E+00  0.00000000E+00
  0.00000000E+00  0.00000000E+00  0.00000000E+00
  0.00000000E+00  0.00000000E+00  0.00000000E+00
  0.00000000E+00  0.00000000E+00  0.00000000E+00
  0.00000000E+00  0.00000000E+00  0.00000000E+00
  0.00000000E+00  0.00000000E+00  0.00000000E+00
