Ni32 O32
1.0
   8.4000000000000004    0.0000000000000000    0.0000000000000000
   0.0000000000000000    8.4000000000000004    0.0000000000000000
   0.0000000000000000    0.0000000000000000    8.4000000000000004
Ni O
32 32
direct
   0.0000000000000000    0.0000000000000000    0.0000000000000000 Ni
   0.0000000000000000    0.2500000000000000    0.2500000000000000 Ni
   0.2500000000000000    0.0000000000000000    0.2500000000000000 Ni
   0.2500000000000000    0.2500000000000000    0.0000000000000000 Ni
   0.0000000000000000    0.0000000000000000    0.5000000000000000 Ni
   0.0000000000000000    0.2500000000000000    0.7500000000000000 Ni
   0.2500000000000000    0.0000000000000000    0.7500000000000000 Ni
   0.2500000000000000    0.2500000000000000    0.5000000000000000 Ni
   0.0000000000000000    0.5000000000000000    0.0000000000000000 Ni
   0.0000000000000000    0.7500000000000000    0.2500000000000000 Ni
   0.2500000000000000    0.5000000000000000    0.2500000000000000 Ni
   0.2500000000000000    0.7500000000000000    0.0000000000000000 Ni
   0.0000000000000000    0.5000000000000000    0.5000000000000000 Ni
   0.0000000000000000    0.7500000000000000    0.7500000000000000 Ni
   0.2500000000000000    0.5000000000000000    0.7500000000000000 Ni
   0.2500000000000000    0.7500000000000000    0.5000000000000000 Ni
   0.5000000000000000    0.0000000000000000    0.0000000000000000 Ni
   0.5000000000000000    0.2500000000000000    0.2500000000000000 Ni
   0.7500000000000000    0.0000000000000000    0.2500000000000000 Ni
   0.7500000000000000    0.2500000000000000    0.0000000000000000 Ni
   0.5000000000000000    0.0000000000000000    0.5000000000000000 Ni
   0.5000000000000000    0.2500000000000000    0.7500000000000000 Ni
   0.7500000000000000    0.0000000000000000    0.7500000000000000 Ni
   0.7500000000000000    0.2500000000000000    0.5000000000000000 Ni
   0.5000000000000000    0.5000000000000000    0.0000000000000000 Ni
   0.5000000000000000    0.7500000000000000    0.2500000000000000 Ni
   0.7500000000000000    0.5000000000000000    0.2500000000000000 Ni
   0.7500000000000000    0.7500000000000000    0.0000000000000000 Ni
   0.5000000000000000    0.5000000000000000    0.5000000000000000 Ni
   0.5000000000000000    0.7500000000000000    0.7500000000000000 Ni
   0.7500000000000000    0.5000000000000000    0.7500000000000000 Ni
   0.7500000000000000    0.7500000000000000    0.5000000000000000 Ni
   0.2500000000000000    0.0000000000000000    0.0000000000000000 O
   0.2500000000000000    0.2500000000000000    0.2500000000000000 O
   0.0000000000000000    0.0000000000000000    0.2500000000000000 O
   0.0000000000000000    0.2500000000000000    0.0000000000000000 O
   0.2500000000000000    0.0000000000000000    0.5000000000000000 O
   0.2500000000000000    0.2500000000000000    0.7500000000000000 O
   0.0000000000000000    0.0000000000000000    0.7500000000000000 O
   0.0000000000000000    0.2500000000000000    0.5000000000000000 O
   0.2500000000000000    0.5000000000000000    0.0000000000000000 O
   0.2500000000000000    0.7500000000000000    0.2500000000000000 O
   0.0000000000000000    0.5000000000000000    0.2500000000000000 O
   0.0000000000000000    0.7500000000000000    0.0000000000000000 O
   0.2500000000000000    0.5000000000000000    0.5000000000000000 O
   0.2500000000000000    0.7500000000000000    0.7500000000000000 O
   0.0000000000000000    0.5000000000000000    0.7500000000000000 O
   0.0000000000000000    0.7500000000000000    0.5000000000000000 O
   0.7500000000000000    0.0000000000000000    0.0000000000000000 O
   0.7500000000000000    0.2500000000000000    0.2500000000000000 O
   0.5000000000000000    0.0000000000000000    0.2500000000000000 O
   0.5000000000000000    0.2500000000000000    0.0000000000000000 O
   0.7500000000000000    0.0000000000000000    0.5000000000000000 O
   0.7500000000000000    0.2500000000000000    0.7500000000000000 O
   0.5000000000000000    0.0000000000000000    0.7500000000000000 O
   0.5000000000000000    0.2500000000000000    0.5000000000000000 O
   0.7500000000000000    0.5000000000000000    0.0000000000000000 O
   0.7500000000000000    0.7500000000000000    0.2500000000000000 O
   0.5000000000000000    0.5000000000000000    0.2500000000000000 O
   0.5000000000000000    0.7500000000000000    0.0000000000000000 O
   0.7500000000000000    0.5000000000000000    0.5000000000000000 O
   0.7500000000000000    0.7500000000000000    0.7500000000000000 O
   0.5000000000000000    0.5000000000000000    0.7500000000000000 O
   0.5000000000000000    0.7500000000000000    0.5000000000000000 O
