Sr Ti O 
 1.0000000000000000
     4.0000000000000000    0.0000000000000000    0.0000000000000000
     0.0000000000000000    4.0000000000000000    0.0000000000000000
     0.0000000000000000    0.0000000000000000    4.0000000000000000
 Sr  Ti  O  
   1   1   3
Cartesian
  0.0025005085955696  0.0184337332340675  0.0044791326523178
  2.0093768083680943  2.0109290651919771  1.9874030833128351
  1.9912558899853836  0.0045093426369367  1.9906171416583354
  2.0132273185910354  2.0084442440399273 -0.0042197282132303
  0.0007777117274567  2.0092560889097326  1.9908207522724006
