Sr Ti O 
 1.0000000000000000
     4.0000000000000000    0.0000000000000000    0.0000000000000000
     0.0000000000000000    4.0000000000000000    0.0000000000000000
     0.0000000000000000    0.0000000000000000    4.0000000000000000
 Sr  Ti  O  
   1   1   3
Cartesian
  0.0161883671271433  0.0066922930995214  0.0072035656931529
  2.0045370868005592  2.0049605638798473  2.0018006750248443
  2.0063860922056418 -0.0015589141804710  1.9902334135531896
  2.0028874742870348  2.0160698633338940  0.0319810144162161
 -0.0077850746665482  2.0014317259454089  1.9917350770144830
